
Gurobi 10.0.1 (win64) logging started Sat Aug 26 13:35:56 2023

Set parameter LogFile to value "results//log/BA_07_makespan.log"
Gurobi Optimizer version 10.0.1 build v10.0.1rc0 (win64)

CPU model: AMD Ryzen 7 3700X 8-Core Processor, instruction set [SSE2|AVX|AVX2]
Thread count: 8 physical cores, 16 logical processors, using up to 16 threads

Optimize a model with 150 rows, 118 columns and 553 nonzeros
Model fingerprint: 0x3c2e69a8
Variable types: 18 continuous, 100 integer (99 binary)
Coefficient statistics:
  Matrix range     [1e+00, 1e+06]
  Objective range  [1e+00, 1e+00]
  Bounds range     [1e+00, 1e+00]
  RHS range        [1e+00, 3e+06]
Found heuristic solution: objective 46.0000000
Presolve removed 31 rows and 62 columns
Presolve time: 0.00s
Presolved: 119 rows, 56 columns, 502 nonzeros
Variable types: 18 continuous, 38 integer (37 binary)

Root relaxation: objective 2.600000e+01, 24 iterations, 0.00 seconds (0.00 work units)

    Nodes    |    Current Node    |     Objective Bounds      |     Work
 Expl Unexpl |  Obj  Depth IntInf | Incumbent    BestBd   Gap | It/Node Time

     0     0   26.00000    0    4   46.00000   26.00000  43.5%     -    0s
H    0     0                      38.0000000   26.00000  31.6%     -    0s
     0     0   26.00000    0    2   38.00000   26.00000  31.6%     -    0s
H    0     0                      37.0000000   26.00000  29.7%     -    0s
     0     0   26.00000    0    6   37.00000   26.00000  29.7%     -    0s
     0     0   27.00000    0    7   37.00000   27.00000  27.0%     -    0s
     0     0   27.00000    0    5   37.00000   27.00000  27.0%     -    0s
     0     0   27.00000    0   10   37.00000   27.00000  27.0%     -    0s
     0     0   27.00000    0    8   37.00000   27.00000  27.0%     -    0s
     0     0   27.00000    0   11   37.00000   27.00000  27.0%     -    0s
     0     0   27.00000    0    8   37.00000   27.00000  27.0%     -    0s
     0     0   27.00000    0    8   37.00000   27.00000  27.0%     -    0s
H    0     2                      36.0000000   27.00000  25.0%     -    0s
     0     2   27.00000    0    8   36.00000   27.00000  25.0%     -    0s

Cutting planes:
  Learned: 10

Explored 14618 nodes (1396 simplex iterations) in 0.35 seconds (0.21 work units)
Thread count was 16 (of 16 available processors)

Solution count 4: 36 37 38 46 

Optimal solution found (tolerance 1.00e-04)
Best objective 3.600000000000e+01, best bound 3.600000000000e+01, gap 0.0000%
Warning: constraint name "precedence between 0,1 to 0,0 if x_[j,l,h,z,i]=1" has a space
Warning: constraint name "precedence between 0,1 to 0,0 if x_[j,l,h,z,i]=1" has a space
Warning: default constraint names used to write mps file
